
Gurobi 11.0.3 (linux64) logging started Wed Apr 15 22:54:44 2026

Set parameter LogFile to value "tree/results/ceva/ceva_depth-2_run-3/Full MIP/LogFile_FullModel.txt"
Gurobi Optimizer version 11.0.3 build v11.0.3rc0 (linux64 - "CentOS Linux 7 (Core)")

CPU model: Intel(R) Xeon(R) Platinum 8260 CPU @ 2.40GHz, instruction set [SSE2|AVX|AVX2|AVX512]
Thread count: 96 physical cores, 192 logical processors, using up to 32 threads

Optimize a model with 36513 rows, 31271 columns and 553681 nonzeros
Model fingerprint: 0x31819c20
Model has 5184 general constraints
Variable types: 15658 continuous, 15613 integer (15613 binary)
Coefficient statistics:
  Matrix range     [8e-04, 1e+04]
  Objective range  [8e-04, 1e+04]
  Bounds range     [1e+00, 1e+03]
  RHS range        [1e-04, 1e+03]

User MIP start produced solution with objective -113799 (0.22s)
Loaded user MIP start with objective -113799

Presolve added 5180 rows and 10368 columns
Presolve time: 0.98s
Presolved: 41693 rows, 41639 columns, 574409 nonzeros
Presolved model has 10368 SOS constraint(s)
Variable types: 15658 continuous, 25981 integer (25981 binary)

Deterministic concurrent LP optimizer: primal simplex, dual simplex, and barrier
Showing barrier log only...

Root relaxation presolved: 36509 rows, 36455 columns, 564041 nonzeros

Root barrier log...

Ordering time: 0.03s

Barrier statistics:
 Dense cols : 48
 AA' NZ     : 5.470e+05
 Factor NZ  : 1.261e+06 (roughly 40 MB of memory)
 Factor Ops : 4.372e+07 (less than 1 second per iteration)
 Threads    : 30

                  Objective                Residual
Iter       Primal          Dual         Primal    Dual     Compl     Time
   0  -1.25990750e+05  5.67389688e+09  1.50e+04 1.97e-14  1.06e+06     2s
   1  -8.06256206e+04  4.96438676e+09  2.87e+03 6.06e-09  3.25e+05     2s
   2  -5.55867512e+04  2.59088904e+09  2.93e+02 1.52e-09  4.85e+04     3s
   3  -1.17704413e+04  5.66813575e+08  2.74e+01 8.35e-09  6.74e+03     3s
   4  -1.17758705e+03  6.91001522e+07  1.70e+00 1.03e-09  7.30e+02     3s
   5  -1.17243477e+02  7.40789585e+06  1.70e-01 2.86e-10  7.55e+01     3s
   6  -1.12081070e+01  7.49846927e+05  1.73e-02 2.60e-11  7.58e+00     3s
   7  -5.94293868e-01  8.18176904e+04  1.96e-03 2.23e-12  8.27e-01     3s
   8   5.83572077e-01  1.57586952e+04  3.07e-04 2.43e-13  1.59e-01     3s
   9   9.12135641e-01  1.79670624e+03  3.04e-05 1.70e-14  1.81e-02     3s
  10   9.90462844e-01  1.86652903e+02  3.01e-06 3.42e-15  1.88e-03     4s
  11   9.99045937e-01  1.95678068e+01  2.98e-07 2.34e-16  1.88e-04     4s
  12   9.99904594e-01  2.85681015e+00  2.98e-08 2.01e-17  1.88e-05     4s
  13   9.99990459e-01  1.18568429e+00  2.96e-09 3.47e-18  1.88e-06     4s
  14   9.99999046e-01  1.01856843e+00  2.96e-10 1.42e-14  1.88e-07     4s
  15   9.99999905e-01  1.00185688e+00  2.94e-11 6.94e-18  1.88e-08     4s
  16   9.99999990e-01  1.00018569e+00  2.98e-12 8.07e-24  1.88e-09     4s
  17   9.99999999e-01  1.00001857e+00  3.41e-13 3.47e-18  1.88e-10     5s
  18   1.00000000e+00  1.00000186e+00  8.53e-14 3.47e-18  1.88e-11     5s
  19   1.00000000e+00  1.00000019e+00  8.53e-14 6.94e-18  1.88e-12     5s
  20   1.00000000e+00  1.00000002e+00  8.53e-14 1.32e-19  1.88e-13     5s

Barrier solved model in 20 iterations and 5.03 seconds (2.18 work units)
Optimal objective 1.00000000e+00


Root crossover log...

       1 DPushes remaining with DInf 0.0000000e+00                 5s
       0 DPushes remaining with DInf 0.0000000e+00                 5s

    5336 PPushes remaining with PInf 0.0000000e+00                 5s
       0 PPushes remaining with PInf 0.0000000e+00                 5s

  Push phase complete: Pinf 0.0000000e+00, Dinf 0.0000000e+00      5s


Root simplex log...

Iteration    Objective       Primal Inf.    Dual Inf.      Time
    5340    1.0000000e+00   0.000000e+00   0.000000e+00      5s
    5340    1.0000000e+00   0.000000e+00   0.000000e+00      5s
Concurrent spin time: 0.00s

Solved with barrier

Root relaxation: objective 1.000000e+00, 5340 iterations, 3.89 seconds (1.77 work units)

    Nodes    |    Current Node    |     Objective Bounds      |     Work
 Expl Unexpl |  Obj  Depth IntInf | Incumbent    BestBd   Gap | It/Node Time

     0     0    1.00000    0 5186 -113799.25    1.00000   100%     -    6s
     0     2    1.00000    0 5186 -113799.25    1.00000   100%     -   34s
H    1     4                    -113799.2546    1.00000   100%   0.0   39s
     3     8    1.00000    2 5186 -113799.25    1.00000   100%   198   40s
    15    32    1.00000    4 6115 -113799.25    1.00000   100%   444   46s
    31    64    1.00000    5 5617 -113799.25    1.00000   100%   505   50s
H   34    64                       0.5486111    1.00000  82.3%   461   50s
    63    96    1.00000    6 5530    0.54861    1.00000  82.3%   256   73s
    95   128    1.00000    6 5531    0.54861    1.00000  82.3%   176  152s
   127   160    1.00000    7 5843    0.54861    1.00000  82.3%   143  185s
   159   192    1.00000    7 5529    0.54861    1.00000  82.3%   181  241s
   191   224    1.00000    8 5841    0.54861    1.00000  82.3%   154  350s
   223   256    1.00000    8 5841    0.54861    1.00000  82.3%   143  966s
   255   640    1.00000    9 5840    0.54861    1.00000  82.3%   126  976s
   639  1280    1.00000   15 5176    0.54861    1.00000  82.3%  74.3 1073s
  1279  5576    1.00000   25 5157    0.54861    1.00000  82.3%  53.7 1243s
  5575 10573    1.00000   86 5098    0.54861    1.00000  82.3%  37.0 1341s
 10572 12026    1.00000  149 5045    0.54861    1.00000  82.3%  33.6 1424s
 12025 16037    1.00000  170 5012    0.54861    1.00000  82.3%  34.0 1576s
 16037 16038    1.00000  208    2    0.54861    1.00000  82.3%  34.0 1656s
 16039 16039    1.00000  177   26    0.54861    1.00000  82.3%  33.9 1677s
 16040 16040    1.00000  425   26    0.54861    1.00000  82.3%  33.9 1721s
 16041 16044    1.00000   12 5203    0.54861    1.00000  82.3%  35.0 1726s
 16055 16067    1.00000   15 5867    0.54861    1.00000  82.3%  35.3 1730s
 16071 16094    1.00000   16 5865    0.54861    1.00000  82.3%  35.5 1741s
 16135 16136    1.00000   17 5877    0.54861    1.00000  82.3%  36.7 1798s
 16199 16179    1.00000   18 5873    0.54861    1.00000  82.3%  37.5 1965s
 16231 16227    1.00000   19 5872    0.54861    1.00000  82.3%  37.5 1973s
 16290 16240    1.00000   20 5871    0.54861    1.00000  82.3%  38.2 3049s
 16322 16395    1.00000   20 5870    0.54861    1.00000  82.3%  38.2 3084s
H16343 15585                       0.6141975    1.00000  62.8%  39.2 3084s
H16457 14786                       0.6412037    1.00000  56.0%  40.2 3084s
 16488 14808    1.00000   21 5262    0.64120    1.00000  56.0%  40.6 3176s
 16520 14881    1.00000   22 5174    0.64120    1.00000  56.0%  40.8 3245s
H16522 14156                       0.7091049    1.00000  41.0%  40.8 3245s
 16604 15690    1.00000   22 5188    0.70910    1.00000  41.0%  41.1 3329s
 18165 15202    1.00000   39 5170    0.70910    1.00000  41.0%  46.5 3410s
 18197 15957    1.00000   39 5343    0.70910    1.00000  41.0%  46.6 3600s

Explored 18963 nodes (951876 simplex iterations) in 3600.30 seconds (6610.20 work units)
Thread count was 32 (of 192 available processors)

Solution count 6: 0.709105 0.641204 0.614198 ... -113799

Time limit reached
Best objective 7.091049382716e-01, best bound 1.000000000000e+00, gap 41.0229%

User-callback calls 1331588, time in user-callback 8.46 sec
